93
0 73 26 12 55 74 60 14 3 82 
71 42 91 20 92 6 57 64 75 56 
41 10 13 68 66 72 29 46 36 54 
43 38 11 90 84 58 27 86 49 24 
51 53 59 79 8 83 39 30 63 62 
22 85 48 31 52 28 81 37 18 15 
5 67 17 89 25 88 69 44 50 65 
35 34 87 33 61 40 45 1 70 78 
21 23 19 4 7 80 76 77 47 32 
16 2 9 
